nP = 6;
nT = 26;
nC1 = 33;
nC2 = 52;
nA = 193;
nD = 3;

arc_from = [2, 4, 2, 5, 1, 5, 2, 5, 5, 6, 2, 3, 6, 4, 3, 1, 6, 5, 4, 3, 5, 3, 4, 2, 4, 2, 2, 6, 6, 2, 1, 5, 4, 5, 4, 3, 3, 4, 1, 5, 7, 7, 7, 8, 8, 9, 10, 10, 11, 11, 12, 13, 13, 13, 14, 14, 15, 15, 16, 16, 16, 17, 17, 18, 18, 19, 19, 20, 20, 21, 21, 21, 22, 22, 23, 24, 24, 25, 25, 25, 26, 26, 27, 28, 29, 29, 29, 30, 30, 30, 31, 32, 37, 42, 33, 46, 65, 62, 56, 36, 63, 64, 34, 33, 59, 33, 34, 50, 51, 34, 65, 60, 44, 39, 39, 42, 48, 45, 49, 55, 50, 58, 38, 56, 58, 62, 48, 47, 52, 38, 35, 38, 58, 57, 57, 63, 36, 33, 43, 38, 64, 60, 54, 39, 33, 34, 35, 35, 36, 37, 37, 38, 39, 39, 40, 41, 41, 42, 43, 44, 44, 45, 45, 46, 47, 48, 48, 49, 49, 50, 50, 51, 51, 52, 53, 53, 54, 54, 55, 56, 56, 57, 57, 58, 59, 59, 60, 61, 61, 63, 64, 65, 65];
arc_to = [7, 8, 9, 9, 10, 11, 12, 12, 13, 13, 14, 14, 15, 16, 17, 17, 18, 19, 19, 20, 21, 21, 22, 22, 23, 23, 24, 24, 25, 25, 26, 26, 27, 27, 28, 29, 30, 31, 32, 32, 45, 36, 50, 35, 37, 46, 46, 54, 33, 46, 40, 63, 48, 46, 48, 53, 57, 62, 55, 52, 49, 65, 64, 39, 63, 46, 56, 59, 35, 47, 42, 34, 59, 51, 45, 47, 57, 48, 64, 54, 64, 62, 55, 41, 64, 44, 36, 35, 37, 36, 59, 47, 66, 67, 68, 69, 70, 71, 72, 73, 74, 75, 76, 77, 78, 79, 80, 81, 82, 83, 84, 85, 86, 87, 88, 89, 90, 91, 92, 93, 94, 95, 96, 97, 98, 99, 100, 101, 102, 103, 104, 105, 106, 107, 108, 109, 110, 111, 112, 113, 114, 115, 116, 117, 80, 110, 83, 68, 109, 100, 102, 77, 67, 79, 114, 70, 85, 102, 102, 109, 100, 90, 114, 116, 98, 69, 72, 80, 70, 104, 115, 115, 86, 106, 116, 94, 80, 88, 77, 71, 115, 117, 81, 71, 75, 90, 113, 86, 89, 85, 89, 72, 74];

supply = [959.66, 959.66, 959.66, 959.66, 959.66, 959.66, 0.00, 0.00, 0.00, 0.00, 0.00, 0.00, 0.00, 0.00, 0.00, 0.00, 0.00, 0.00, 0.00, 0.00, 0.00, 0.00, 0.00, 0.00, 0.00, 0.00, 0.00, 0.00, 0.00, 0.00, 0.00, 0.00, 0.00, 0.00, 0.00, 0.00, 0.00, 0.00, 0.00, 0.00, 0.00, 0.00, 0.00, 0.00, 0.00, 0.00, 0.00, 0.00, 0.00, 0.00, 0.00, 0.00, 0.00, 0.00, 0.00, 0.00, 0.00, 0.00, 0.00, 0.00, 0.00, 0.00, 0.00, 0.00, 0.00, 0.00, 0.00, 0.00, 0.00, 0.00, 0.00, 0.00, 0.00, 0.00, 0.00, 0.00, 0.00, 0.00, 0.00, 0.00, 0.00, 0.00, 0.00, 0.00, 0.00, 0.00, 0.00, 0.00, 0.00, 0.00, 0.00, 0.00, 0.00, 0.00, 0.00, 0.00, 0.00, 0.00, 0.00, 0.00, 0.00, 0.00, 0.00, 0.00, 0.00, 0.00, 0.00, 0.00, 0.00, 0.00, 0.00, 0.00, 0.00, 0.00, 0.00, 0.00, 0.00];
demand = [0.00, 0.00, 0.00, 0.00, 0.00, 0.00, 0.00, 0.00, 0.00, 0.00, 0.00, 0.00, 0.00, 0.00, 0.00, 0.00, 0.00, 0.00, 0.00, 0.00, 0.00, 0.00, 0.00, 0.00, 0.00, 0.00, 0.00, 0.00, 0.00, 0.00, 0.00, 0.00, 45.43, 46.66, 48.99, 40.79, 41.33, 50.65, 52.83, 38.28, 44.99, 49.72, 38.21, 47.15, 37.91, 46.85, 46.07, 47.31, 39.53, 42.81, 46.34, 38.91, 40.55, 47.50, 38.45, 46.16, 51.65, 45.11, 46.21, 45.18, 37.84, 45.28, 51.61, 50.07, 44.06, 62.23, 58.43, 46.35, 53.13, 46.77, 67.86, 66.51, 46.89, 66.49, 46.05, 54.59, 62.75, 62.68, 67.50, 59.96, 54.85, 67.83, 53.99, 65.03, 65.88, 53.84, 60.80, 60.32, 57.55, 60.14, 53.21, 49.37, 57.50, 57.31, 61.82, 50.37, 45.41, 45.84, 52.09, 60.59, 57.67, 57.38, 63.99, 50.94, 53.17, 51.57, 66.57, 61.76, 47.88, 63.67, 54.83, 62.69, 65.36, 45.68, 50.00, 47.61, 46.09];

max_capacity = [795, 1414, 3181];

install_cost = array2d(1..nA, 1..nD, [
  20, 24, 32,
  50, 62, 78,
  20, 24, 32,
  50, 62, 78,
  20, 24, 32,
  50, 62, 78,
  20, 24, 32,
  50, 62, 78,
  20, 24, 32,
  50, 62, 78,
  20, 24, 32,
  50, 62, 78,
  20, 24, 32,
  50, 62, 78,
  20, 24, 32,
  50, 62, 78,
  20, 24, 32,
  50, 62, 78,
  20, 24, 32,
  50, 62, 78,
  20, 24, 32,
  50, 62, 78,
  20, 24, 32,
  50, 62, 78,
  20, 24, 32,
  50, 62, 78,
  20, 24, 32,
  50, 62, 78,
  20, 24, 32,
  50, 62, 78,
  20, 24, 32,
  50, 62, 78,
  20, 24, 32,
  50, 62, 78,
  20, 24, 32,
  50, 62, 78,
  20, 24, 32,
  50, 62, 78,
  20, 24, 32,
  50, 62, 78,
  20, 24, 32,
  50, 62, 78,
  20, 24, 32,
  50, 62, 78,
  20, 24, 32,
  50, 62, 78,
  20, 24, 32,
  50, 62, 78,
  20, 24, 32,
  50, 62, 78,
  20, 24, 32,
  50, 62, 78,
  20, 24, 32,
  50, 62, 78,
  20, 24, 32,
  50, 62, 78,
  20, 24, 32,
  50, 62, 78,
  20, 24, 32,
  50, 62, 78,
  20, 24, 32,
  50, 62, 78,
  20, 24, 32,
  50, 62, 78,
  20, 24, 32,
  50, 62, 78,
  20, 24, 32,
  50, 62, 78,
  20, 24, 32,
  50, 62, 78,
  20, 24, 32,
  50, 62, 78,
  20, 24, 32,
  50, 62, 78,
  20, 24, 32,
  50, 62, 78,
  20, 24, 32,
  50, 62, 78,
  20, 24, 32,
  50, 62, 78,
  20, 24, 32,
  50, 62, 78,
  20, 24, 32,
  50, 62, 78,
  20, 24, 32,
  50, 62, 78,
  20, 24, 32,
  50, 62, 78,
  20, 24, 32,
  50, 62, 78,
  20, 24, 32,
  50, 62, 78,
  20, 24, 32,
  50, 62, 78,
  20, 24, 32,
  50, 62, 78,
  20, 24, 32,
  50, 62, 78,
  20, 24, 32,
  50, 62, 78,
  20, 24, 32,
  50, 62, 78,
  20, 24, 32,
  50, 62, 78,
  20, 24, 32,
  50, 62, 78,
  20, 24, 32,
  50, 62, 78,
  20, 24, 32,
  50, 62, 78,
  20, 24, 32,
  50, 62, 78,
  20, 24, 32,
  50, 62, 78,
  20, 24, 32,
  50, 62, 78,
  20, 24, 32,
  50, 62, 78,
  20, 24, 32,
  50, 62, 78,
  20, 24, 32,
  50, 62, 78,
  20, 24, 32,
  50, 62, 78,
  20, 24, 32,
  50, 62, 78,
  20, 24, 32,
  50, 62, 78,
  20, 24, 32,
  50, 62, 78,
  20, 24, 32,
  50, 62, 78,
  20, 24, 32,
  50, 62, 78,
  20, 24, 32,
  50, 62, 78,
  20, 24, 32,
  50, 62, 78,
  20, 24, 32,
  50, 62, 78,
  20, 24, 32,
  50, 62, 78,
  20, 24, 32,
  50, 62, 78,
  20, 24, 32,
  50, 62, 78,
  20, 24, 32,
  50, 62, 78,
  20, 24, 32,
  50, 62, 78,
  20, 24, 32,
  50, 62, 78,
  20, 24, 32,
  50, 62, 78,
  20, 24, 32,
  50, 62, 78,
  20, 24, 32,
  50, 62, 78,
  20, 24, 32,
  50, 62, 78,
  20, 24, 32,
  50, 62, 78,
  20, 24, 32,
  50, 62, 78,
  20, 24, 32,
  50, 62, 78,
  20, 24, 32,
  50, 62, 78,
  20, 24, 32,
  50, 62, 78,
  20, 24, 32,
  50, 62, 78,
  20, 24, 32,
  50, 62, 78,
  20, 24, 32,
  50, 62, 78,
  20, 24, 32,
  50, 62, 78,
  20, 24, 32,
  50, 62, 78,
  20, 24, 32,
  50, 62, 78,
  20, 24, 32,
  50, 62, 78,
  20, 24, 32,
  50, 62, 78,
  20, 24, 32,
  50, 62, 78,
  20, 24, 32,
  50, 62, 78,
  20, 24, 32,
  50, 62, 78,
  20, 24, 32
]);

trans_cost = [4.29, 8.45, 4.28, 6.45, 4.87, 5.90, 6.49, 6.48, 6.63, 8.42, 6.68, 5.63, 7.45, 7.78, 4.16, 6.90, 7.05, 5.55, 8.06, 5.77, 6.19, 5.74, 6.02, 4.36, 3.84, 8.39, 4.73, 4.51, 2.77, 5.04, 4.02, 8.46, 7.51, 4.97, 9.38, 7.47, 5.51, 2.25, 9.44, 3.92, 3.53, 7.53, 9.66, 8.08, 6.85, 6.89, 7.28, 7.14, 6.42, 6.16, 5.91, 4.87, 5.58, 3.46, 5.85, 4.52, 4.34, 6.27, 8.09, 7.38, 3.64, 4.52, 7.41, 4.53, 5.66, 6.83, 4.55, 6.16, 4.00, 5.10, 6.48, 3.61, 6.66, 5.97, 6.83, 6.34, 8.05, 6.19, 5.36, 6.18, 6.81, 6.07, 6.06, 4.95, 5.01, 3.90, 8.62, 4.13, 4.96, 4.92, 7.34, 5.56, 7.87, 4.99, 6.42, 4.75, 9.22, 4.22, 6.46, 6.95, 6.62, 5.72, 5.81, 6.07, 5.78, 7.45, 9.32, 5.16, 3.95, 5.87, 9.87, 4.79, 8.46, 8.52, 5.17, 6.85, 8.44, 5.43, 5.69, 5.13, 4.48, 5.03, 4.16, 6.05, 4.85, 6.35, 3.67, 6.50, 7.25, 3.01, 6.56, 7.84, 4.19, 8.51, 6.63, 4.94, 5.92, 6.84, 6.11, 6.81, 4.62, 6.25, 3.88, 5.83, 4.64, 4.90, 7.85, 7.64, 6.91, 4.36, 5.53, 7.82, 6.21, 9.48, 6.59, 6.29, 5.54, 6.20, 5.77, 7.06, 7.44, 4.82, 4.00, 3.25, 6.76, 4.34, 2.77, 6.58, 9.74, 5.99, 7.26, 6.12, 5.85, 7.38, 5.56, 6.40, 6.48, 5.00, 7.49, 5.74, 4.87, 6.80, 4.65, 6.04, 5.99, 7.63, 6.71, 5.96, 7.23, 8.09, 6.84, 6.02, 4.03];

% Metadata: {'tamaño': 'grandes', 'numero': 4, 'grupo': 5, 'demanda_total': 4429.22, 'suministro_total': 5757.96, 'factor_holgura': 1.3, 'num_arcos': 193, 'conectividad': {'plantas_tanques': 40, 'tanques_transbordo': 52, 'transbordo_finales': 101}}
% Total supply: 5757.96
% Total demand: 4429.22
% Balance factor: 1.30
